NAME : POMORSKIE-n10
COMMENT : Auto generated by mgrVRP
TYPE : CVRP
DIMENSION : 10
EDGE_WEIGHT_TYPE : EUC_2D
CAPACITY : 200.0
NODE_COORD_SECTION
1 54.12403799354569 18.77863188538209
2 53.72369104968799 17.106233570955414
3 54.34460435369607 18.385526336303005
4 54.184248491488674 17.627658792820373
5 54.361090663121175 17.865231699518098
6 54.58972799158646 18.109985264982374
7 54.28660876076608 17.595175928401556
8 53.98336526795325 18.44076275528056
9 53.89545918695737 18.418507578146436
10 54.019318238170655 16.8978750882751
11 54.2605306759428 17.130580705237858
DEMAND_SECTION
1 0
2 37.0
3 32.0
4 41.0
5 59.0
6 37.0
7 57.0
8 34.0
9 51.0
10 54.0
11 51.0
DEPOT_SECTION
1
-1
EOF
